files/upTests/_matrix_of_tuples/withMutiMutiMatrix2/0001.eprime.solution
language ESSENCE' 1.0
$ minion Nodes: 1
$ minion TotalTime: 0.000411
$ Savile Row TotalTime: 0.177
letting pain_tuple1 be [[2;int(1)], 
[2;int(1)];int(1,2)]
letting pain_tuple2_tuple1 be [[[4, 5;int(1,2)];int(1)], 
[[4, 5;int(1,2)];int(1)];int(1,2)]
letting pain_tuple2_tuple2 be [[[10, 11;int(1,2)];int(1)], 
[[10, 11;int(1,2)];int(1)];int(1,2)]
